(set-logic QF_S)
(declare-fun var0 () String)
(assert (RegexIn var0 (RegexConcat (RegexStar (RegexPlus (Str2Reg "0"))) (RegexConcat (RegexUnion (RegexStar (Str2Reg "111")) (RegexStar (Str2Reg "2"))) (RegexConcat (RegexUnion (RegexStar (Str2Reg "33")) (RegexStar (Str2Reg "444"))) (RegexConcat (RegexUnion (RegexStar (Str2Reg "5")) (RegexStar (Str2Reg "66"))) (RegexConcat (RegexUnion (RegexPlus (Str2Reg "77")) (RegexPlus (Str2Reg "8"))) (RegexConcat (RegexPlus (RegexPlus (Str2Reg "99"))) (RegexConcat (RegexPlus (RegexPlus (Str2Reg "aaa"))) (RegexConcat (RegexStar (RegexStar (Str2Reg "b"))) (RegexConcat (RegexStar (RegexPlus (Str2Reg "cc"))) (RegexConcat (RegexStar (RegexUnion (Str2Reg "dd") (Str2Reg "ee"))) (RegexConcat (RegexStar (RegexStar (Str2Reg "f"))) (RegexConcat (RegexStar (RegexUnion (Str2Reg "ggg") (Str2Reg "h"))) (RegexConcat (RegexPlus (RegexStar (Str2Reg "iii"))) (RegexConcat (RegexUnion (RegexPlus (Str2Reg "jjj")) (RegexPlus (Str2Reg "kk"))) (RegexConcat (RegexStar (RegexStar (Str2Reg "lll"))) (RegexConcat (RegexUnion (RegexPlus (Str2Reg "mmm")) (RegexPlus (Str2Reg "nnn"))) (RegexConcat (RegexUnion (RegexUnion (Str2Reg "ooo") (Str2Reg "pp")) (RegexUnion (Str2Reg "qq") (Str2Reg "rr"))) (RegexConcat (RegexStar (RegexUnion (Str2Reg "s") (Str2Reg "tt"))) (RegexConcat (RegexUnion (RegexUnion (Str2Reg "u") (Str2Reg "vv")) (RegexUnion (Str2Reg "www") (Str2Reg "xx"))) (RegexConcat (RegexPlus (RegexStar (Str2Reg "y"))) (RegexConcat (RegexUnion (RegexUnion (Str2Reg "z") (Str2Reg "AAA")) (RegexUnion (Str2Reg "B") (Str2Reg "CC"))) (RegexConcat (RegexStar (RegexStar (Str2Reg "D"))) (RegexConcat (RegexUnion (RegexPlus (Str2Reg "EE")) (RegexPlus (Str2Reg "F"))) (RegexConcat (RegexUnion (RegexUnion (Str2Reg "G") (Str2Reg "HHH")) (RegexUnion (Str2Reg "I") (Str2Reg "JJ"))) (RegexConcat (RegexStar (RegexPlus (Str2Reg "KKK"))) (RegexConcat (RegexPlus (RegexStar (Str2Reg "LLL"))) (RegexConcat (RegexStar (RegexStar (Str2Reg "MM"))) (RegexConcat (RegexPlus (RegexPlus (Str2Reg "NN"))) (RegexConcat (RegexPlus (RegexUnion (Str2Reg "OO") (Str2Reg "P"))) (RegexConcat (RegexStar (RegexUnion (Str2Reg "QQQ") (Str2Reg "R"))) (RegexConcat (RegexStar (RegexUnion (Str2Reg "SS") (Str2Reg "T"))) (RegexConcat (RegexUnion (RegexPlus (Str2Reg "UUU")) (RegexPlus (Str2Reg "VV"))) (RegexConcat (RegexPlus (RegexPlus (Str2Reg "WWW"))) (RegexConcat (RegexStar (RegexPlus (Str2Reg "XX"))) (RegexConcat (RegexPlus (RegexStar (Str2Reg "Y"))) (RegexConcat (RegexStar (RegexStar (Str2Reg "ZZZ"))) (RegexConcat (RegexStar (RegexPlus (Str2Reg "!!!"))) (RegexConcat (RegexUnion (RegexUnion (Str2Reg "\"") (Str2Reg "##")) (RegexUnion (Str2Reg "$$") (Str2Reg "%%"))) (RegexConcat (RegexPlus (RegexUnion (Str2Reg "&") (Str2Reg "'''"))) (RegexConcat (RegexStar (RegexStar (Str2Reg "((("))) (RegexConcat (RegexUnion (RegexPlus (Str2Reg "))")) (RegexPlus (Str2Reg "***"))) (RegexConcat (RegexUnion (RegexUnion (Str2Reg "+++") (Str2Reg ",,")) (RegexUnion (Str2Reg "-") (Str2Reg "."))) (RegexConcat (RegexStar (RegexUnion (Str2Reg "///") (Str2Reg ":"))) (RegexConcat (RegexStar (RegexPlus (Str2Reg ";;;"))) (RegexConcat (RegexUnion (RegexPlus (Str2Reg "<<")) (RegexPlus (Str2Reg "==="))) (RegexConcat (RegexUnion (RegexPlus (Str2Reg ">")) (RegexPlus (Str2Reg "??"))) (RegexConcat (RegexUnion (RegexStar (Str2Reg "@@")) (RegexStar (Str2Reg "[[["))) (RegexConcat (RegexPlus (RegexStar (Str2Reg "\\"))) (RegexConcat (RegexStar (RegexUnion (Str2Reg "]]]") (Str2Reg "^"))) (RegexConcat (RegexStar (RegexStar (Str2Reg "___"))) (RegexConcat (RegexUnion (RegexUnion (Str2Reg "``") (Str2Reg "{{")) (RegexUnion (Str2Reg "|") (Str2Reg "}}"))) (RegexConcat (RegexUnion (RegexPlus (Str2Reg "~~")) (RegexPlus (Str2Reg "00"))) (RegexConcat (RegexStar (RegexUnion (Str2Reg "111") (Str2Reg "222"))) (RegexConcat (RegexStar (RegexStar (Str2Reg "33"))) (RegexConcat (RegexUnion (RegexStar (Str2Reg "444")) (RegexStar (Str2Reg "5"))) (RegexPlus (RegexStar (Str2Reg "666"))))))))))))))))))))))))))))))))))))))))))))))))))))))))))))
(assert (not (RegexIn var0 (RegexConcat (RegexUnion (RegexStar (Str2Reg "000")) (RegexStar (Str2Reg "1"))) (RegexConcat (RegexStar (RegexPlus (Str2Reg "22"))) (RegexConcat (RegexPlus (RegexPlus (Str2Reg "33"))) (RegexConcat (RegexPlus (RegexPlus (Str2Reg "4"))) (RegexConcat (RegexPlus (RegexUnion (Str2Reg "55") (Str2Reg "66"))) (RegexConcat (RegexStar (RegexPlus (Str2Reg "7"))) (RegexConcat (RegexStar (RegexUnion (Str2Reg "88") (Str2Reg "9"))) (RegexConcat (RegexUnion (RegexStar (Str2Reg "aaa")) (RegexStar (Str2Reg "b"))) (RegexConcat (RegexUnion (RegexStar (Str2Reg "cc")) (RegexStar (Str2Reg "d"))) (RegexConcat (RegexStar (RegexPlus (Str2Reg "e"))) (RegexConcat (RegexStar (RegexStar (Str2Reg "fff"))) (RegexConcat (RegexUnion (RegexStar (Str2Reg "g")) (RegexStar (Str2Reg "h"))) (RegexConcat (RegexStar (RegexPlus (Str2Reg "ii"))) (RegexConcat (RegexStar (RegexStar (Str2Reg "jj"))) (RegexConcat (RegexUnion (RegexPlus (Str2Reg "kk")) (RegexPlus (Str2Reg "l"))) (RegexConcat (RegexUnion (RegexStar (Str2Reg "mmm")) (RegexStar (Str2Reg "nn"))) (RegexConcat (RegexPlus (RegexUnion (Str2Reg "o") (Str2Reg "pp"))) (RegexConcat (RegexPlus (RegexUnion (Str2Reg "qq") (Str2Reg "rrr"))) (RegexConcat (RegexPlus (RegexUnion (Str2Reg "s") (Str2Reg "t"))) (RegexConcat (RegexStar (RegexStar (Str2Reg "uu"))) (RegexConcat (RegexPlus (RegexPlus (Str2Reg "vvv"))) (RegexConcat (RegexStar (RegexPlus (Str2Reg "www"))) (RegexConcat (RegexUnion (RegexPlus (Str2Reg "xxx")) (RegexPlus (Str2Reg "yy"))) (RegexConcat (RegexUnion (RegexStar (Str2Reg "zz")) (RegexStar (Str2Reg "A"))) (RegexConcat (RegexPlus (RegexStar (Str2Reg "BBB"))) (RegexConcat (RegexPlus (RegexStar (Str2Reg "C"))) (RegexConcat (RegexStar (RegexPlus (Str2Reg "DDD"))) (RegexConcat (RegexStar (RegexPlus (Str2Reg "EEE"))) (RegexConcat (RegexPlus (RegexStar (Str2Reg "F"))) (RegexConcat (RegexStar (RegexUnion (Str2Reg "GGG") (Str2Reg "HH"))) (RegexConcat (RegexUnion (RegexUnion (Str2Reg "I") (Str2Reg "J")) (RegexUnion (Str2Reg "KKK") (Str2Reg "LL"))) (RegexConcat (RegexStar (RegexStar (Str2Reg "M"))) (RegexConcat (RegexStar (RegexStar (Str2Reg "N"))) (RegexConcat (RegexUnion (RegexStar (Str2Reg "OOO")) (RegexStar (Str2Reg "PP"))) (RegexConcat (RegexStar (RegexStar (Str2Reg "QQQ"))) (RegexConcat (RegexPlus (RegexPlus (Str2Reg "RR"))) (RegexConcat (RegexPlus (RegexPlus (Str2Reg "SSS"))) (RegexConcat (RegexStar (RegexPlus (Str2Reg "T"))) (RegexConcat (RegexPlus (RegexUnion (Str2Reg "UUU") (Str2Reg "VVV"))) (RegexConcat (RegexUnion (RegexPlus (Str2Reg "WW")) (RegexPlus (Str2Reg "XXX"))) (RegexConcat (RegexUnion (RegexPlus (Str2Reg "YY")) (RegexPlus (Str2Reg "ZZZ"))) (RegexConcat (RegexPlus (RegexPlus (Str2Reg "!!"))) (RegexConcat (RegexStar (RegexStar (Str2Reg "\"\""))) (RegexConcat (RegexPlus (RegexStar (Str2Reg "###"))) (RegexConcat (RegexUnion (RegexUnion (Str2Reg "$") (Str2Reg "%%")) (RegexUnion (Str2Reg "&") (Str2Reg "''"))) (RegexConcat (RegexStar (RegexUnion (Str2Reg "(((") (Str2Reg "))"))) (RegexConcat (RegexStar (RegexStar (Str2Reg "**"))) (RegexConcat (RegexStar (RegexPlus (Str2Reg "+"))) (RegexConcat (RegexPlus (RegexUnion (Str2Reg ",,") (Str2Reg "-"))) (RegexConcat (RegexUnion (RegexStar (Str2Reg "...")) (RegexStar (Str2Reg "//"))) (RegexConcat (RegexPlus (RegexStar (Str2Reg "::"))) (RegexConcat (RegexPlus (RegexPlus (Str2Reg ";"))) (RegexConcat (RegexStar (RegexStar (Str2Reg "<<<"))) (RegexConcat (RegexUnion (RegexUnion (Str2Reg "===") (Str2Reg ">>")) (RegexUnion (Str2Reg "??") (Str2Reg "@@@"))) (RegexConcat (RegexPlus (RegexStar (Str2Reg "[["))) (RegexPlus (RegexStar (Str2Reg "\\")))))))))))))))))))))))))))))))))))))))))))))))))))))))))))))
(check-sat)